unknown
(:binary-propagations  4151
 :decisions            2327
 :del-clause           958
 :final-checks         2
 :max-generation       1
 :max-memory           40.82
 :memory               24.70
 :mk-bool-var          8613
 :mk-clause            1750
 :mk-clause-binary     6655
 :num-allocs           775535804
 :num-checks           1
 :propagations         4328
 :quant-instantiations 958
 :restarts             1
 :rlimit-count         2514703
 :time                 0.31)
